\ENCODING=ISO-8859-1
\Problem name: ilog.cplex

Maximize
 obj: 0 x1 + 0 x3 + x4 + 0 x5 + 0 x8 + x10 + 0 x11 + 0 x12 + x13 + 0 x16
      + 0 x17
Subject To
 c1: x6 + x14 <= 1
 c2: x10 + x15 <= 1
 c3: x2 + x9 <= 1
 c4: x4 + x7 <= 1
 c5: x13 + x18 <= 1
Bounds
 0 <= x1 <= 1
 0 <= x2 <= 1
 0 <= x3 <= 1
 0 <= x4 <= 1
 0 <= x5 <= 1
 0 <= x6 <= 1
 0 <= x7 <= 1
 0 <= x8 <= 1
 0 <= x9 <= 1
 0 <= x10 <= 1
 0 <= x11 <= 1
 0 <= x12 <= 1
 0 <= x13 <= 1
 0 <= x14 <= 1
 0 <= x15 <= 1
 0 <= x16 <= 1
 0 <= x17 <= 1
 0 <= x18 <= 1
Binaries
 x1  x2  x3  x4  x5  x6  x7  x8  x9  x10  x11  x12  x13  x14  x15  x16  x17 
 x18 
End
